70 31
92 28
14 55
55 27
52 71
16 11
3 103
20 200
60 43
95 17
28 172
77 51
55 100
47 50
26 99
20 169
9 187
13 180
88 60
33 172
21 169
6 96
18 61
30 85
73 22
12 76
65 69
26 49
1 68
14 99
4 115
87 22
35 61
25 76
7 6
36 17
5 193
20 146
5 179
63 18
3 149
9 133
11 115
19 10
12 16
29 119
16 23
10 103
42 17
8 79
